p cnf 743 1530
-1 0
2 0
-3 0
-22 0
52 0
-53 4 0
-53 2 0
-53 -6 0
-53 -52 0
-54 4 0
-54 3 0
-54 -7 0
-54 -52 0
-55 53 54 0
-56 8 0
-56 1 0
-56 -9 0
-56 -52 0
-57 55 56 0
-58 8 0
-58 3 0
-58 -11 0
-58 -52 0
-59 57 58 0
-60 4 0
-60 12 0
-60 5 0
-60 -52 0
-61 59 60 0
-62 8 0
-62 14 0
-62 10 0
-62 -52 0
-63 61 62 0
-64 12 0
-64 -17 0
-64 -52 0
-65 63 64 0
-66 13 0
-66 -18 0
-66 -52 0
-67 65 66 0
-68 14 0
-68 -19 0
-68 -52 0
-69 67 68 0
-70 15 0
-70 -20 0
-70 -52 0
-71 69 70 0
-72 1 0
-72 18 0
-72 -52 0
-73 71 72 0
-74 2 0
-74 20 0
-74 -52 0
-75 73 74 0
-76 4 0
-76 14 0
-76 -52 0
-77 75 76 0
-78 4 0
-78 15 0
-78 -52 0
-79 77 78 0
-80 4 0
-80 16 0
-80 -52 0
-81 79 80 0
-82 8 0
-82 12 0
-82 -52 0
-83 81 82 0
-84 8 0
-84 13 0
-84 -52 0
-85 83 84 0
-86 8 0
-86 16 0
-86 -52 0
-87 85 86 0
-88 -1 0
-88 -18 0
-88 -52 0
-89 87 88 0
-90 -2 0
-90 -20 0
-90 -52 0
-91 89 90 0
-92 -4 0
-92 -5 0
-92 -52 0
-93 91 92 0
-94 -8 0
-94 -10 0
-94 -52 0
-95 93 94 0
-96 -12 0
-96 17 0
-96 -52 0
-97 95 96 0
-98 -14 0
-98 19 0
-98 -52 0
-99 97 98 0
-100 -4 0
-100 6 0
-100 -52 0
-101 99 100 0
-102 -4 0
-102 7 0
-102 -52 0
-103 101 102 0
-104 -8 0
-104 9 0
-104 -52 0
-105 103 104 0
-106 -8 0
-106 11 0
-106 -52 0
-107 105 106 0
-108 -2 0
-108 6 0
-108 -52 0
-109 107 108 0
-110 -3 0
-110 7 0
-110 -52 0
-111 109 110 0
-112 -1 0
-112 9 0
-112 -52 0
-113 111 112 0
-114 -3 0
-114 11 0
-114 -52 0
-115 113 114 0
-116 -4 0
-116 -8 0
-116 -52 0
-117 115 116 0
-118 -12 0
-118 -13 0
-118 -14 0
-118 -15 0
-118 -16 0
-118 -52 0
-119 117 118 0
-120 -1 0
-120 -2 0
-120 -3 0
-120 -52 0
-121 119 120 0
-122 4 0
-122 8 0
-122 -52 0
-123 121 122 0
-124 8 0
-124 4 0
-124 -52 0
-125 123 124 0
-126 12 0
-126 13 0
-126 -52 0
-127 125 126 0
-128 12 0
-128 14 0
-128 -52 0
-129 127 128 0
-130 12 0
-130 15 0
-130 -52 0
-131 129 130 0
-132 12 0
-132 16 0
-132 -52 0
-133 131 132 0
-134 13 0
-134 12 0
-134 -52 0
-135 133 134 0
-136 13 0
-136 14 0
-136 -52 0
-137 135 136 0
-138 13 0
-138 15 0
-138 -52 0
-139 137 138 0
-140 13 0
-140 16 0
-140 -52 0
-141 139 140 0
-142 14 0
-142 12 0
-142 -52 0
-143 141 142 0
-144 14 0
-144 13 0
-144 -52 0
-145 143 144 0
-146 14 0
-146 15 0
-146 -52 0
-147 145 146 0
-148 14 0
-148 16 0
-148 -52 0
-149 147 148 0
-150 15 0
-150 12 0
-150 -52 0
-151 149 150 0
-152 15 0
-152 13 0
-152 -52 0
-153 151 152 0
-154 15 0
-154 14 0
-154 -52 0
-155 153 154 0
-156 15 0
-156 16 0
-156 -52 0
-157 155 156 0
-158 16 0
-158 12 0
-158 -52 0
-159 157 158 0
-160 16 0
-160 13 0
-160 -52 0
-161 159 160 0
-162 16 0
-162 14 0
-162 -52 0
-163 161 162 0
-164 16 0
-164 15 0
-164 -52 0
-165 163 164 0
-166 1 0
-166 2 0
-166 -52 0
-167 165 166 0
-168 1 0
-168 3 0
-168 -52 0
-169 167 168 0
-170 2 0
-170 1 0
-170 -52 0
-171 169 170 0
-172 2 0
-172 3 0
-172 -52 0
-173 171 172 0
-174 3 0
-174 1 0
-174 -52 0
-175 173 174 0
-176 3 0
-176 2 0
-176 -52 0
-177 175 176 0
-178 4 0
-178 13 0
-178 -52 0
-179 177 178 0
-180 8 0
-180 15 0
-180 -52 0
-181 179 180 0
-182 4 0
-182 1 0
-182 -52 0
-183 181 182 0
-184 8 0
-184 2 0
-184 -52 0
-185 183 184 0
-186 13 0
-186 1 0
-186 -52 0
-187 185 186 0
-188 15 0
-188 2 0
-188 -52 0
-189 187 188 0
-190 16 0
-190 3 0
-190 -52 0
-191 189 190 0
-192 26 0
-192 22 0
-192 -28 0
-192 -52 0
-193 191 192 0
-194 26 0
-194 23 0
-194 -29 0
-194 -52 0
-195 193 194 0
-196 26 0
-196 24 0
-196 -30 0
-196 -52 0
-197 195 196 0
-198 26 0
-198 25 0
-198 -31 0
-198 -52 0
-199 197 198 0
-200 32 0
-200 21 0
-200 -33 0
-200 -52 0
-201 199 200 0
-202 32 0
-202 23 0
-202 -34 0
-202 -52 0
-203 201 202 0
-204 32 0
-204 24 0
-204 -35 0
-204 -52 0
-205 203 204 0
-206 32 0
-206 25 0
-206 -36 0
-206 -52 0
-207 205 206 0
-208 37 0
-208 21 0
-208 -38 0
-208 -52 0
-209 207 208 0
-210 37 0
-210 22 0
-210 -39 0
-210 -52 0
-211 209 210 0
-212 37 0
-212 24 0
-212 -40 0
-212 -52 0
-213 211 212 0
-214 37 0
-214 25 0
-214 -41 0
-214 -52 0
-215 213 214 0
-216 42 0
-216 21 0
-216 -43 0
-216 -52 0
-217 215 216 0
-218 42 0
-218 22 0
-218 -44 0
-218 -52 0
-219 217 218 0
-220 42 0
-220 23 0
-220 -45 0
-220 46 0
-220 -52 0
-221 219 220 0
-222 42 0
-222 25 0
-222 -46 0
-222 -52 0
-223 221 222 0
-224 26 0
-224 52 0
-224 27 0
-224 -52 0
-225 223 224 0
-226 32 0
-226 47 0
-226 33 0
-226 -52 0
-227 225 226 0
-228 32 0
-228 50 0
-228 35 0
-228 -52 0
-229 227 228 0
-230 32 0
-230 51 0
-230 36 0
-230 -52 0
-231 229 230 0
-232 37 0
-232 51 0
-232 41 0
-232 -52 0
-233 231 232 0
-234 42 0
-234 48 0
-234 44 0
-234 -52 0
-235 233 234 0
-236 42 0
-236 49 0
-236 45 0
-236 46 0
-236 -52 0
-237 235 236 0
-238 42 0
-238 51 0
-238 46 0
-238 -52 0
-239 237 238 0
-240 26 0
-240 48 0
-240 -52 0
-241 239 240 0
-242 26 0
-242 49 0
-242 -52 0
-243 241 242 0
-244 26 0
-244 50 0
-244 -52 0
-245 243 244 0
-246 26 0
-246 51 0
-246 -52 0
-247 245 246 0
-248 32 0
-248 52 0
-248 -52 0
-249 247 248 0
-250 32 0
-250 47 0
-250 -5 0
-250 -52 0
-251 249 250 0
-252 32 0
-252 49 0
-252 -52 0
-253 251 252 0
-254 32 0
-254 50 0
-254 -6 0
-254 -52 0
-255 253 254 0
-256 32 0
-256 51 0
-256 -7 0
-256 -52 0
-257 255 256 0
-258 37 0
-258 52 0
-258 -52 0
-259 257 258 0
-260 37 0
-260 47 0
-260 -52 0
-261 259 260 0
-262 37 0
-262 48 0
-262 -52 0
-263 261 262 0
-264 37 0
-264 50 0
-264 -52 0
-265 263 264 0
-266 42 0
-266 52 0
-266 -52 0
-267 265 266 0
-268 42 0
-268 47 0
-268 -52 0
-269 267 268 0
-270 42 0
-270 48 0
-270 -9 0
-270 -52 0
-271 269 270 0
-272 42 0
-272 49 0
-272 -10 0
-272 -52 0
-273 271 272 0
-274 42 0
-274 51 0
-274 -11 0
-274 -52 0
-275 273 274 0
-276 26 0
-276 -17 0
-276 -52 0
-277 275 276 0
-278 32 0
-278 -18 0
-278 -52 0
-279 277 278 0
-280 37 0
-280 -19 0
-280 -52 0
-281 279 280 0
-282 42 0
-282 -20 0
-282 -52 0
-283 281 282 0
-284 21 0
-284 -17 0
-284 -52 0
-285 283 284 0
-286 22 0
-286 -18 0
-286 -52 0
-287 285 286 0
-288 23 0
-288 -19 0
-288 -52 0
-289 287 288 0
-290 24 0
-290 -20 0
-290 -52 0
-291 289 290 0
-292 -26 0
-292 -27 0
-292 22 0
-293 291 292 0
-294 -32 0
-294 5 0
-294 -33 0
-294 22 0
-295 293 294 0
-296 -32 0
-296 6 0
-296 -35 0
-296 22 0
-297 295 296 0
-298 -32 0
-298 7 0
-298 -36 0
-298 22 0
-299 297 298 0
-300 -37 0
-300 -41 0
-300 22 0
-301 299 300 0
-302 -42 0
-302 9 0
-302 -44 0
-302 22 0
-303 301 302 0
-304 -42 0
-304 10 0
-304 -45 0
-304 46 0
-304 22 0
-305 303 304 0
-306 -42 0
-306 11 0
-306 -46 0
-306 22 0
-307 305 306 0
-308 -26 0
-308 28 0
-308 22 0
-309 307 308 0
-310 -26 0
-310 29 0
-310 22 0
-311 309 310 0
-312 -26 0
-312 30 0
-312 22 0
-313 311 312 0
-314 -26 0
-314 31 0
-314 22 0
-315 313 314 0
-316 -32 0
-316 -5 0
-316 33 0
-316 22 0
-317 315 316 0
-318 -32 0
-318 34 0
-318 22 0
-319 317 318 0
-320 -32 0
-320 -6 0
-320 35 0
-320 22 0
-321 319 320 0
-322 -32 0
-322 -7 0
-322 36 0
-322 22 0
-323 321 322 0
-324 -37 0
-324 38 0
-324 22 0
-325 323 324 0
-326 -37 0
-326 39 0
-326 22 0
-327 325 326 0
-328 -37 0
-328 40 0
-328 22 0
-329 327 328 0
-330 -42 0
-330 43 0
-330 22 0
-331 329 330 0
-332 -42 0
-332 -9 0
-332 44 0
-332 22 0
-333 331 332 0
-334 -42 0
-334 -10 0
-334 45 0
-334 46 0
-334 22 0
-335 333 334 0
-336 -42 0
-336 -11 0
-336 46 0
-336 22 0
-337 335 336 0
-338 -22 0
-338 28 0
-338 22 0
-339 337 338 0
-340 -23 0
-340 29 0
-340 22 0
-341 339 340 0
-342 -24 0
-342 30 0
-342 22 0
-343 341 342 0
-344 -25 0
-344 31 0
-344 22 0
-345 343 344 0
-346 -21 0
-346 -5 0
-346 33 0
-346 22 0
-347 345 346 0
-348 -23 0
-348 34 0
-348 22 0
-349 347 348 0
-350 -24 0
-350 -6 0
-350 35 0
-350 22 0
-351 349 350 0
-352 -25 0
-352 -7 0
-352 36 0
-352 22 0
-353 351 352 0
-354 -21 0
-354 38 0
-354 22 0
-355 353 354 0
-356 -22 0
-356 39 0
-356 22 0
-357 355 356 0
-358 -24 0
-358 40 0
-358 22 0
-359 357 358 0
-360 -21 0
-360 43 0
-360 22 0
-361 359 360 0
-362 -22 0
-362 -9 0
-362 44 0
-362 22 0
-363 361 362 0
-364 -23 0
-364 -10 0
-364 45 0
-364 46 0
-364 22 0
-365 363 364 0
-366 -25 0
-366 -11 0
-366 46 0
-366 22 0
-367 365 366 0
-368 -26 0
-368 -32 0
-368 -37 0
-368 -42 0
-368 22 0
-369 367 368 0
-370 -52 0
-370 -47 0
-370 -48 0
-370 -49 0
-370 -50 0
-370 -51 0
-370 22 0
-371 369 370 0
-372 -21 0
-372 -22 0
-372 -23 0
-372 -24 0
-372 -25 0
-372 22 0
-373 371 372 0
-374 26 0
-374 32 0
-374 22 0
-375 373 374 0
-376 26 0
-376 37 0
-376 22 0
-377 375 376 0
-378 26 0
-378 42 0
-378 22 0
-379 377 378 0
-380 32 0
-380 26 0
-380 22 0
-381 379 380 0
-382 32 0
-382 37 0
-382 22 0
-383 381 382 0
-384 32 0
-384 42 0
-384 22 0
-385 383 384 0
-386 37 0
-386 26 0
-386 22 0
-387 385 386 0
-388 37 0
-388 32 0
-388 22 0
-389 387 388 0
-390 37 0
-390 42 0
-390 22 0
-391 389 390 0
-392 42 0
-392 26 0
-392 -2 0
-393 391 392 0
-394 42 0
-394 32 0
-394 -2 0
-395 393 394 0
-396 42 0
-396 37 0
-396 -2 0
-397 395 396 0
-398 52 0
-398 47 0
-398 -2 0
-399 397 398 0
-400 52 0
-400 48 0
-400 -2 0
-401 399 400 0
-402 52 0
-402 49 0
-402 -2 0
-403 401 402 0
-404 52 0
-404 50 0
-404 -2 0
-405 403 404 0
-406 52 0
-406 51 0
-406 -2 0
-407 405 406 0
-408 47 0
-408 52 0
-408 -2 0
-409 407 408 0
-410 47 0
-410 48 0
-410 -2 0
-411 409 410 0
-412 47 0
-412 49 0
-412 -2 0
-413 411 412 0
-414 47 0
-414 50 0
-414 -2 0
-415 413 414 0
-416 47 0
-416 51 0
-416 -2 0
-417 415 416 0
-418 48 0
-418 52 0
-418 -2 0
-419 417 418 0
-420 48 0
-420 47 0
-420 -2 0
-421 419 420 0
-422 48 0
-422 49 0
-422 -2 0
-423 421 422 0
-424 48 0
-424 50 0
-424 -2 0
-425 423 424 0
-426 48 0
-426 51 0
-426 -2 0
-427 425 426 0
-428 49 0
-428 52 0
-428 -2 0
-429 427 428 0
-430 49 0
-430 47 0
-430 -2 0
-431 429 430 0
-432 49 0
-432 48 0
-432 -2 0
-433 431 432 0
-434 49 0
-434 50 0
-434 -2 0
-435 433 434 0
-436 49 0
-436 51 0
-436 -2 0
-437 435 436 0
-438 50 0
-438 52 0
-438 -2 0
-439 437 438 0
-440 50 0
-440 47 0
-440 -2 0
-441 439 440 0
-442 50 0
-442 48 0
-442 -2 0
-443 441 442 0
-444 50 0
-444 49 0
-444 -2 0
-445 443 444 0
-446 50 0
-446 51 0
-446 -2 0
-447 445 446 0
-448 51 0
-448 52 0
-448 -2 0
-449 447 448 0
-450 51 0
-450 47 0
-450 -2 0
-451 449 450 0
-452 51 0
-452 48 0
-452 -2 0
-453 451 452 0
-454 51 0
-454 49 0
-454 -2 0
-455 453 454 0
-456 51 0
-456 50 0
-456 -2 0
-457 455 456 0
-458 21 0
-458 22 0
-458 -2 0
-459 457 458 0
-460 21 0
-460 23 0
-460 -2 0
-461 459 460 0
-462 21 0
-462 24 0
-462 -2 0
-463 461 462 0
-464 21 0
-464 25 0
-464 -2 0
-465 463 464 0
-466 22 0
-466 21 0
-466 -2 0
-467 465 466 0
-468 22 0
-468 23 0
-468 -2 0
-469 467 468 0
-470 22 0
-470 24 0
-470 -2 0
-471 469 470 0
-472 22 0
-472 25 0
-472 -2 0
-473 471 472 0
-474 23 0
-474 21 0
-474 -2 0
-475 473 474 0
-476 23 0
-476 22 0
-476 -2 0
-477 475 476 0
-478 23 0
-478 24 0
-478 -2 0
-479 477 478 0
-480 23 0
-480 25 0
-480 -2 0
-481 479 480 0
-482 24 0
-482 21 0
-482 -2 0
-483 481 482 0
-484 24 0
-484 22 0
-484 -2 0
-485 483 484 0
-486 24 0
-486 23 0
-486 -2 0
-487 485 486 0
-488 24 0
-488 25 0
-488 -2 0
-489 487 488 0
-490 25 0
-490 21 0
-490 -2 0
-491 489 490 0
-492 25 0
-492 22 0
-492 -2 0
-493 491 492 0
-494 25 0
-494 23 0
-494 -2 0
-495 493 494 0
-496 25 0
-496 24 0
-496 -2 0
-497 495 496 0
-498 26 0
-498 47 0
-498 -2 0
-499 497 498 0
-500 32 0
-500 48 0
-500 -2 0
-501 499 500 0
-502 37 0
-502 49 0
-502 -2 0
-503 501 502 0
-504 42 0
-504 50 0
-504 -2 0
-505 503 504 0
-506 26 0
-506 21 0
-506 -2 0
-507 505 506 0
-508 32 0
-508 22 0
-508 -2 0
-509 507 508 0
-510 37 0
-510 23 0
-510 -2 0
-511 509 510 0
-512 42 0
-512 24 0
-512 -2 0
-513 511 512 0
-514 47 0
-514 21 0
-514 -2 0
-515 513 514 0
-516 48 0
-516 22 0
-516 -2 0
-517 515 516 0
-518 49 0
-518 23 0
-518 -2 0
-519 517 518 0
-520 50 0
-520 24 0
-520 -2 0
-521 519 520 0
-522 51 0
-522 25 0
-522 -2 0
-523 521 522 0
-524 6 0
-524 9 0
-524 -2 0
-525 523 524 0
-526 9 0
-526 6 0
-526 -2 0
-527 525 526 0
-528 5 0
-528 6 0
-528 -2 0
-529 527 528 0
-530 5 0
-530 7 0
-530 -2 0
-531 529 530 0
-532 6 0
-532 5 0
-532 -2 0
-533 531 532 0
-534 6 0
-534 7 0
-534 -2 0
-535 533 534 0
-536 7 0
-536 5 0
-536 -2 0
-537 535 536 0
-538 7 0
-538 6 0
-538 -2 0
-539 537 538 0
-540 9 0
-540 10 0
-540 -2 0
-541 539 540 0
-542 9 0
-542 11 0
-542 -2 0
-543 541 542 0
-544 10 0
-544 9 0
-544 -2 0
-545 543 544 0
-546 10 0
-546 11 0
-546 -2 0
-547 545 546 0
-548 11 0
-548 9 0
-548 -2 0
-549 547 548 0
-550 11 0
-550 10 0
-550 -2 0
-551 549 550 0
-552 5 0
-552 17 0
-552 -2 0
-553 551 552 0
-554 6 0
-554 20 0
-554 -2 0
-555 553 554 0
-556 9 0
-556 18 0
-556 -2 0
-557 555 556 0
-558 10 0
-558 19 0
-558 -2 0
-559 557 558 0
-560 28 0
-560 33 0
-560 -2 0
-561 559 560 0
-562 29 0
-562 38 0
-562 -2 0
-563 561 562 0
-564 30 0
-564 43 0
-564 -2 0
-565 563 564 0
-566 33 0
-566 28 0
-566 -2 0
-567 565 566 0
-568 34 0
-568 39 0
-568 -2 0
-569 567 568 0
-570 35 0
-570 44 0
-570 -2 0
-571 569 570 0
-572 38 0
-572 29 0
-572 -2 0
-573 571 572 0
-574 39 0
-574 34 0
-574 -2 0
-575 573 574 0
-576 40 0
-576 45 0
-576 46 0
-576 -2 0
-577 575 576 0
-578 43 0
-578 30 0
-578 -2 0
-579 577 578 0
-580 44 0
-580 35 0
-580 -2 0
-581 579 580 0
-582 45 0
-582 40 0
-582 46 0
-582 -2 0
-583 581 582 0
-584 28 0
-584 39 0
-584 -2 0
-585 583 584 0
-586 28 0
-586 44 0
-586 -2 0
-587 585 586 0
-588 29 0
-588 34 0
-588 -2 0
-589 587 588 0
-590 29 0
-590 45 0
-590 46 0
-590 -2 0
-591 589 590 0
-592 30 0
-592 35 0
-592 -2 0
-593 591 592 0
-594 30 0
-594 40 0
-594 -2 0
-595 593 594 0
-596 33 0
-596 38 0
-596 -2 0
-597 595 596 0
-598 33 0
-598 43 0
-598 -2 0
-599 597 598 0
-600 34 0
-600 29 0
-600 -2 0
-601 599 600 0
-602 34 0
-602 45 0
-602 46 0
-602 -2 0
-603 601 602 0
-604 35 0
-604 30 0
-604 -2 0
-605 603 604 0
-606 35 0
-606 40 0
-606 -2 0
-607 605 606 0
-608 38 0
-608 33 0
-608 -2 0
-609 607 608 0
-610 38 0
-610 43 0
-610 -2 0
-611 609 610 0
-612 39 0
-612 28 0
-612 -2 0
-613 611 612 0
-614 39 0
-614 44 0
-614 -2 0
-615 613 614 0
-616 40 0
-616 30 0
-616 -2 0
-617 615 616 0
-618 40 0
-618 35 0
-618 -2 0
-619 617 618 0
-620 43 0
-620 33 0
-620 -2 0
-621 619 620 0
-622 43 0
-622 38 0
-622 -2 0
-623 621 622 0
-624 44 0
-624 28 0
-624 -2 0
-625 623 624 0
-626 44 0
-626 39 0
-626 -2 0
-627 625 626 0
-628 45 0
-628 29 0
-628 46 0
-628 -2 0
-629 627 628 0
-630 45 0
-630 34 0
-630 46 0
-630 -2 0
-631 629 630 0
-632 27 0
-632 28 0
-632 -2 0
-633 631 632 0
-634 27 0
-634 29 0
-634 -2 0
-635 633 634 0
-636 27 0
-636 30 0
-636 -2 0
-637 635 636 0
-638 27 0
-638 31 0
-638 -2 0
-639 637 638 0
-640 28 0
-640 27 0
-640 -2 0
-641 639 640 0
-642 28 0
-642 29 0
-642 -2 0
-643 641 642 0
-644 28 0
-644 30 0
-644 -2 0
-645 643 644 0
-646 28 0
-646 31 0
-646 -2 0
-647 645 646 0
-648 29 0
-648 27 0
-648 -2 0
-649 647 648 0
-650 29 0
-650 28 0
-650 -2 0
-651 649 650 0
-652 29 0
-652 30 0
-652 -2 0
-653 651 652 0
-654 29 0
-654 31 0
-654 -2 0
-655 653 654 0
-656 30 0
-656 27 0
-656 -2 0
-657 655 656 0
-658 30 0
-658 28 0
-658 -2 0
-659 657 658 0
-660 30 0
-660 29 0
-660 -2 0
-661 659 660 0
-662 30 0
-662 31 0
-662 -2 0
-663 661 662 0
-664 31 0
-664 27 0
-664 -2 0
-665 663 664 0
-666 31 0
-666 28 0
-666 -2 0
-667 665 666 0
-668 31 0
-668 29 0
-668 -2 0
-669 667 668 0
-670 31 0
-670 30 0
-670 -2 0
-671 669 670 0
-672 33 0
-672 34 0
-672 -2 0
-673 671 672 0
-674 33 0
-674 35 0
-674 -2 0
-675 673 674 0
-676 33 0
-676 36 0
-676 -2 0
-677 675 676 0
-678 34 0
-678 33 0
-678 -2 0
-679 677 678 0
-680 34 0
-680 35 0
-680 -2 0
-681 679 680 0
-682 34 0
-682 36 0
-682 -2 0
-683 681 682 0
-684 35 0
-684 33 0
-684 -2 0
-685 683 684 0
-686 35 0
-686 34 0
-686 -2 0
-687 685 686 0
-688 35 0
-688 36 0
-688 -2 0
-689 687 688 0
-690 36 0
-690 33 0
-690 -2 0
-691 689 690 0
-692 36 0
-692 34 0
-692 -2 0
-693 691 692 0
-694 36 0
-694 35 0
-694 -2 0
-695 693 694 0
-696 38 0
-696 39 0
-696 -2 0
-697 695 696 0
-698 38 0
-698 40 0
-698 -2 0
-699 697 698 0
-700 38 0
-700 41 0
-700 46 0
-700 -2 0
-701 699 700 0
-702 39 0
-702 38 0
-702 46 0
-702 -2 0
-703 701 702 0
-704 39 0
-704 40 0
-704 46 0
-704 -2 0
-705 703 704 0
-706 39 0
-706 41 0
-706 46 0
-706 -2 0
-707 705 706 0
-708 40 0
-708 38 0
-708 46 0
-708 -2 0
-709 707 708 0
-710 40 0
-710 39 0
-710 46 0
-710 -2 0
-711 709 710 0
-712 40 0
-712 41 0
-712 46 0
-712 -2 0
-713 711 712 0
-714 41 0
-714 38 0
-714 46 0
-714 -2 0
-715 713 714 0
-716 41 0
-716 39 0
-716 46 0
-716 -2 0
-717 715 716 0
-718 41 0
-718 40 0
-718 46 0
-718 -2 0
-719 717 718 0
-720 43 0
-720 44 0
-720 46 0
-720 -2 0
-721 719 720 0
-722 43 0
-722 45 0
-722 46 0
-722 -2 0
-723 721 722 0
-724 43 0
-724 46 0
-724 -2 0
-725 723 724 0
-726 44 0
-726 43 0
-726 46 0
-726 -2 0
-727 725 726 0
-728 44 0
-728 45 0
-728 46 0
-728 -2 0
-729 727 728 0
-730 44 0
-730 46 0
-730 -2 0
-731 729 730 0
-732 45 0
-732 46 0
-732 43 0
-732 -2 0
-733 731 732 0
-734 46 0
-734 45 0
-734 44 0
-734 -2 0
-735 733 734 0
-736 45 0
-736 46 0
-736 -2 0
-737 735 736 0
-738 46 0
-738 43 0
-738 -2 0
-739 737 738 0
-740 46 0
-740 44 0
-740 -2 0
-741 739 740 0
-742 46 0
-742 45 0
-742 -2 0
-743 741 742 0
743 0
